SCIP Status        : solving was interrupted [time limit reached]
Total Time         :    3600.00
  solving          :    3600.00
  presolving       :       0.41 (included in solving)
  reading          :       0.00
  copying          :       5.08 (75 #copies) (minimal 0.00, maximal 0.22, average 0.07)
Original Problem   :
  Problem name     : bbbenchmark/pw05_100.1.cut
  Variables        : 101 (100 binary, 0 integer, 0 implicit integer, 1 continuous)
  Constraints      : 1 initial, 1 maximal
  Objective        : minimize, 1 non-zeros (abs.min = 1, abs.max = 1)
Presolved Problem  :
  Problem name     : t_bbbenchmark/pw05_100.1.cut
  Variables        : 1757 (100 binary, 0 integer, 1640 implicit integer, 17 continuous)
  Constraints      : 1689 initial, 11690 maximal
  Objective        : minimize, 1 non-zeros (abs.min = 1, abs.max = 1)
  Nonzeros         : 8427 constraint, 202 clique table
Presolvers         :   ExecTime  SetupTime  Calls  FixedVars   AggrVars   ChgTypes  ChgBounds   AddHoles    DelCons    AddCons   ChgSides   ChgCoefs
  boundshift       :       0.00       0.00      0          0          0          0          0          0          0          0          0          0
  convertinttobin  :       0.00       0.00      0          0          0          0          0          0          0          0          0          0
  domcol           :       0.00       0.00      1          0          0          0          0          0          0          0          0          0
  dualagg          :       0.00       0.00      0          0          0          0          0          0          0          0          0          0
  dualcomp         :       0.00       0.00      1          0          0          0          0          0          0          0          0          0
  dualinfer        :       0.00       0.00      0          0          0          0          0          0          0          0          0          0
  dualsparsify     :       0.00       0.00      1          0          0          0          0          0          0          0          0          0
  gateextraction   :       0.00       0.00      0          0          0          0          0          0          0          0          0          0
  implics          :       0.00       0.00      2          0          0          0          0          0          0          0          0          0
  inttobinary      :       0.00       0.00      0          0          0          0          0          0          0          0          0          0
  qpkktref         :       0.00       0.00      0          0          0          0          0          0          0          0          0          0
  redvub           :       0.00       0.00      0          0          0          0          0          0          0          0          0          0
  sparsify         :       0.00       0.00      1          0          0          0          0          0          0          0          0          0
  stuffing         :       0.00       0.00      0          0          0          0          0          0          0          0          0          0
  trivial          :       0.00       0.00      4          0          0          0          0          0          0          0          0          0
  tworowbnd        :       0.00       0.00      0          0          0          0          0          0          0          0          0          0
  dualfix          :       0.00       0.00      4          0          0          0          0          0          0          0          0          0
  genvbounds       :       0.00       0.00      0          0          0          0          0          0          0          0          0          0
  probing          :       0.26       0.00      1          0          0          0          0          0          0          0          0          0
  pseudoobj        :       0.00       0.00      1          0          0          0          1          0          0          0          0          0
  symmetry         :       0.00       0.00      0          0          0          0          0          0          0          0          0          0
  vbounds          :       0.00       0.00      1          0          0          0          0          0          0          0          0          0
  varbound         :       0.00       0.00      2          0          0          0          0          0          0          0          0          0
  and              :       0.01       0.00      2          0          0          0          0          0          0          0          0          0
  linear           :       0.00       0.00      2          0          0          0          0          0          0          0          0          0
  logicor          :       0.00       0.00      0          0          0          0          0          0          0          0          0          0
  bounddisjunction :       0.00       0.00      0          0          0          0          0          0          0          0          0          0
  nonlinear        :       0.12       0.00      5          0          0          0          1          0          0       1688          0          0
  benders          :       0.00       0.00      0          0          0          0          0          0          0          0          0          0
  components       :       0.01       0.00      1          0          0          0          0          0          0          0          0          0
  root node        :          -          -      -          0          -          -         13          -          -          -          -          -
Constraints        :     Number  MaxNumber  #Separate #Propagate    #EnfoLP    #EnfoRelax  #EnfoPS    #Check   #ResProp    Cutoffs    DomReds       Cuts    Applied      Conss   Children
  benderslp        :          0          0          0          0     117346          0          0       6091          0          0          0          0          0          0          0
  integral         :          0          0          0          0     117346          0          0       6091          0          0        819          0          0        223     234048
  varbound         :         16         16         32     760965          0          0          0        134          0          0      71816          0          0          0          0
  and              :       1640       1640     140583     812335          6          0          0        134     614841          4    1282838       5045       4728          0          0
  linear           :         33+        39         32     812366          6          0          0        132        775         17     498974          0          0          0          0
  logicor          :          0+      9927          0     138335          0          0          0          0         73        451         75          0          0          0          0
  bounddisjunction :          0+       311          0      69214          0          0          0          0          5         42         12          0          0          0          0
  benders          :          0          0          0          0          6          0          0         27          0          0          0          0          0          0          0
  countsols        :          0          0          0          0          6          0          0         27          0          0          0          0          0          0          0
  components       :          0          0          0          0          0          0          0          0          0          0          0          0          0          0          0
Constraint Timings :  TotalTime  SetupTime   Separate  Propagate     EnfoLP     EnfoPS     EnfoRelax   Check    ResProp    SB-Prop
  benderslp        :       0.12       0.00       0.00       0.00       0.11       0.00       0.00       0.01       0.00       0.00
  integral         :      57.24       0.00       0.00       0.00      57.21       0.00       0.00       0.03       0.00       0.00
  varbound         :       1.06       0.00       0.00       1.05       0.00       0.00       0.00       0.00       0.00       0.01
  and              :     107.17       0.00      74.14      32.07       0.00       0.00       0.00       0.04       0.54       0.38
  linear           :       5.46       0.00       0.01       5.41       0.00       0.00       0.00       0.02       0.00       0.02
  logicor          :      17.34       0.00       0.00      17.30       0.00       0.00       0.00       0.00       0.00       0.04
  bounddisjunction :       0.78       0.00       0.00       0.78       0.00       0.00       0.00       0.00       0.00       0.00
  benders          :       0.00       0.00       0.00       0.00       0.00       0.00       0.00       0.00       0.00       0.00
  countsols        :       0.00       0.00       0.00       0.00       0.00       0.00       0.00       0.00       0.00       0.00
  components       :       0.21       0.00       0.00       0.21       0.00       0.00       0.00       0.00       0.00       0.00
Propagators        : #Propagate   #ResProp    Cutoffs    DomReds
  dualfix          :          4          0          0          0
  genvbounds       :          0          0          0          0
  nlobbt           :          0          0          0          0
  obbt             :          0          0          0          0
  probing          :          0          0          0          0
  pseudoobj        :     537948          0          0         24
  redcost          :     276605          0          0     214018
  rootredcost      :         17          0          0          0
  symmetry         :          0          0          0          0
  vbounds          :     125838          0          0          0
Propagator Timings :  TotalTime  SetupTime   Presolve  Propagate    ResProp    SB-Prop
  dualfix          :       0.00       0.00       0.00       0.00       0.00       0.00
  genvbounds       :       0.45       0.00       0.00       0.45       0.00       0.00
  nlobbt           :       0.00       0.00       0.00       0.00       0.00       0.00
  obbt             :       0.00       0.00       0.00       0.00       0.00       0.00
  probing          :       0.26       0.00       0.26       0.00       0.00       0.00
  pseudoobj        :       1.11       0.00       0.00       1.11       0.00       0.00
  redcost          :      16.23       0.00       0.00      16.23       0.00       0.00
  rootredcost      :       0.66       0.00       0.00       0.66       0.00       0.00
  symmetry         :       0.52       0.00       0.00       0.52       0.00       0.00
  vbounds          :       0.81       0.00       0.00       0.80       0.00       0.01
Conflict Analysis  :       Time      Calls    Success    DomReds  Conflicts   Literals    Reconvs ReconvLits   Dualrays   Nonzeros   LP Iters   (pool size: [10000,10000])
  propagation      :       0.01        497        380          -        480       61.6          0        0.0          -          -          -
  infeasible LP    :       0.02         19         19          -        822      140.2          0        0.0         33      162.3          0
  bound exceed. LP :      29.46       7215       6752          -     184015      105.2          0        0.0          0        0.0      78401
  strong branching :       0.00          0          0          -          0        0.0          0        0.0          -          -          0
  pseudo solution  :       0.00          0          0          -          0        0.0          0        0.0          -          -          -
  applied globally :       0.97          -          -          0      38922      117.3          -          -         33          -          -
  applied locally  :          -          -          -          0          0        0.0          -          -          0          -          -
Separators         :   ExecTime  SetupTime      Calls  RootCalls    Cutoffs    DomReds  FoundCuts ViaPoolAdd  DirectAdd    Applied ViaPoolApp  DirectApp      Conss
  cut pool         :       4.55          -      28301         54          -          -      42944    1593828          -          -          -          -          -    (maximal pool size:       3933)
  aggregation      :     116.79       0.00       7443         32          0          0       1177       8045          0       3117       3117          0          0
  > cmir           :          -          -          -          -          -          -          -       8037          0       3109       3109          0          -
  > flowcover      :          -          -          -          -          -          -          -          8          0          8          8          0          -
  > knapsackcover  :          -          -          -          -          -          -          -          0          0          0          0          0          -
  cgmip            :       0.00       0.00          0          0          0          0          0          0          0          0          0          0          0
  clique           :       0.00       0.00         32         32          0          0          0          0          0          0          0          0          0
  closecuts        :       0.00       0.00          0          0          0          0          0          0          0          0          0          0          0
  convexproj       :       0.00       0.00          0          0          0          0          0          0          0          0          0          0          0
  disjunctive      :       0.00       0.00          0          0          0          0          0          0          0          0          0          0          0
  eccuts           :       0.00       0.00          0          0          0          0          0          0          0          0          0          0          0
  gauge            :       0.00       0.00          0          0          0          0          0          0          0          0          0          0          0
  gomory           :       0.00       0.00          0          0          0          0          0          0          0          0          0          0          0
  > gomorymi       :          -          -          -          -          -          -          -          0          0          0          0          0          -
  > strongcg       :          -          -          -          -          -          -          -          0          0          0          0          0          -
  impliedbounds    :       0.38       0.00       7443         32          0          0         11          0          0          0          0          0          0
  interlattice     :       0.00       0.00          0          0          0          0          0          0          0          0          0          0          0
  interminor       :       0.00       0.00          0          0          0          0          0          0          0          0          0          0          0
  intersub         :       0.18       0.00          8          8          0          0          6          0          6          6          0          6          0
  intobj           :       0.00       0.00          0          0          0          0          0          0          0          0          0          0          0
  mcf              :       0.00       0.00          1          1          0          0          0          0          0          0          0          0          0
  minor            :       0.03       0.00          0          0          0          0          0          0          0          0          0          0          0
  mixing           :       0.01       0.00       7443         32          0          0          0          0          0          0          0          0          0
  oddcycle         :       0.00       0.00          0          0          0          0          0          0          0          0          0          0          0
  rapidlearning    :       0.01       0.00          0          0          0          0          0          0          0          0          0          0          0
  rlt              :       0.00       0.00         10         10          0          0          0          0          0          0          0          0          0
  zerohalf         :      48.60       0.00       6674         20          0          0      41756    1585783          0     160892     160892          0          0
Cutselectors       :   ExecTime  SetupTime      Calls  RootCalls   Selected     Forced   Filtered  RootSelec   RootForc   RootFilt 
  hybrid           :       1.33       0.00      16784         30     168743          0    1430136        185          0          0
Pricers            :   ExecTime  SetupTime      Calls       Vars
  problem variables:       0.00          -          0          0
Branching Rules    :   ExecTime  SetupTime   BranchLP  BranchExt   BranchPS    Cutoffs    DomReds       Cuts      Conss   Children
  allfullstrong    :       0.00       0.00          0          0          0          0          0          0          0          0
  cloud            :       0.00       0.00          0          0          0          0          0          0          0          0
  distribution     :       0.00       0.00          0          0          0          0          0          0          0          0
  fullstrong       :       0.00       0.00          0          0          0          0          0          0          0          0
  inference        :       0.00       0.00          0          0          0          0          0          0          0          0
  leastinf         :       0.00       0.00          0          0          0          0          0          0          0          0
  lookahead        :       0.00       0.00          0          0          0          0          0          0          0          0
  mostinf          :       0.00       0.00          0          0          0          0          0          0          0          0
  multaggr         :       0.00       0.00          0          0          0          0          0          0          0          0
  nodereopt        :       0.00       0.00          0          0          0          0          0          0          0          0
  pscost           :       0.00       0.00          0          0          0          0          0          0          0          0
  random           :       0.00       0.00          0          0          0          0          0          0          0          0
  relpscost        :      56.94       0.00     117340          0          0          0        819          0        388     234048
  vanillafullstrong:       0.00       0.00          0          0          0          0          0          0          0          0
Primal Heuristics  :   ExecTime  SetupTime      Calls      Found       Best
  LP solutions     :       0.00          -          -          6          6
  relax solutions  :       0.00          -          -          0          0
  pseudo solutions :       0.00          -          -          0          0
  strong branching :       0.03          -          -          0          0
  actconsdiving    :       0.00       0.00          0          0          0
  adaptivediving   :       3.31       0.00         31          0          0
  alns             :       7.37       0.00         28          9          8
  bound            :       0.00       0.00          0          0          0
  clique           :       0.01       0.00          1          0          0
  coefdiving       :       0.00       0.00          0          0          0
  completesol      :       0.00       0.00          0          0          0
  conflictdiving   :     139.70       0.00       1352          0          0
  crossover        :       1.29       0.00          5          0          0
  dins             :       0.00       0.00          0          0          0
  distributiondivin:      72.43       0.00        364          0          0
  dps              :       0.00       0.00          0          0          0
  dualval          :       0.00       0.00          0          0          0
  farkasdiving     :       0.03       0.00          0          0          0
  feaspump         :       0.14       0.00          1          1          1
  fixandinfer      :       0.00       0.00          0          0          0
  fracdiving       :      54.32       0.00        456          0          0
  gins             :       0.18       0.00          0          0          0
  guideddiving     :      53.54       0.00        456          0          0
  indicator        :       0.13       0.00          0          0          0
  indicatordiving  :       0.00       0.00          0          0          0
  intdiving        :       0.00       0.00          0          0          0
  intshifting      :       0.42       0.00         53          0          0
  linesearchdiving :      50.01       0.00        455          0          0
  localbranching   :       0.00       0.00          0          0          0
  locks            :       0.01       0.00          1          0          0
  lpface           :       0.16       0.00          0          0          0
  mpec             :     291.15       0.00         11          3          3
  multistart       :       0.00       0.00          0          0          0
  mutation         :       0.00       0.00          0          0          0
  nlpdiving        :       4.08       0.00         10          0          0
  objpscostdiving  :      46.44       0.00         57          1          1
  octane           :       0.00       0.00          0          0          0
  ofins            :       0.10       0.00          0          0          0
  oneopt           :       0.15       0.00         22          0          0
  padm             :       0.00       0.00          0          0          0
  proximity        :       0.00       0.00          0          0          0
  pscostdiving     :      54.18       0.00        429          1          1
  randrounding     :       0.45       0.00       6061          0          0
  rens             :       0.00       0.00          0          0          0
  reoptsols        :       0.00       0.00          0          0          0
  repair           :       0.00       0.00          0          0          0
  rins             :       6.60       0.00         41          2          2
  rootsoldiving    :      27.27       0.00         29          0          0
  rounding         :       1.20       0.00       5019          0          0
  shiftandpropagate:       0.00       0.00          0          0          0
  shifting         :      33.81       0.00      10197          4          3
  simplerounding   :       0.14       0.00          0          0          0
  subnlp           :     181.37       0.00          0          0          0
  trivial          :       0.01       0.00          2          2          2
  trivialnegation  :       0.00       0.00          0          0          0
  trustregion      :       0.00       0.00          0          0          0
  trysol           :       0.16       0.00          0          0          0
  twoopt           :       0.00       0.00          0          0          0
  undercover       :       0.54       0.00          1          1          1
  vbounds          :       0.00       0.00          0          0          0
  veclendiving     :      49.65       0.00        456          0          0
  zeroobj          :       0.00       0.00          0          0          0
  zirounding       :       0.27       0.00       1000          0          0
  other solutions  :          -          -          -          0          -
Diving (single)    :      Calls      Nodes   LP Iters Backtracks  Conflicts   MinDepth   MaxDepth   AvgDepth  RoundSols  NLeafSols  MinSolDpt  MaxSolDpt  AvgSolDpt
  actconsdiving    :          0          -          -          -          -          -          -          -          -          -          -          -          -
  coefdiving       :          0          -          -          -          -          -          -          -          -          -          -          -          -
  conflictdiving   :       1352      52657    1232002       1457      88383         48         81       61.6          0          -          -          -          -
  distributiondivin:        364      13258     497381        415      10949         48         72       56.2          0          -          -          -          -
  farkasdiving     :          0          -          -          -          -          -          -          -          -          -          -          -          -
  fracdiving       :        456      48055     470053        173       3457         50        468      126.9          0          -          -          -          -
  guideddiving     :        456      43693     478245        193       6814         56        301      117.3          0          -          -          -          -
  indicatordiving  :          0          -          -          -          -          -          -          -          -          -          -          -          -
  linesearchdiving :        455      17002     479841        459      25625         45         92       59.1          0          -          -          -          -
  pscostdiving     :        429      17480     506389        449      12779         50         82       61.7          0          1         82         82       82.0
  veclendiving     :        456      18326     458858        440      32025         52         83       60.3          0          -          -          -          -
Diving (adaptive)  :      Calls      Nodes   LP Iters Backtracks  Conflicts   MinDepth   MaxDepth   AvgDepth  RoundSols  NLeafSols  MinSolDpt  MaxSolDpt  AvgSolDpt
  actconsdiving    :          3         83       2818          3         30         56         56       56.0          0          -          -          -          -
  coefdiving       :         11        442      11535         10        721         51         89       59.4          0          -          -          -          -
  conflictdiving   :          0          -          -          -          -          -          -          -          -          -          -          -          -
  distributiondivin:          0          -          -          -          -          -          -          -          -          -          -          -          -
  farkasdiving     :          0          -          -          -          -          -          -          -          -          -          -          -          -
  fracdiving       :          3        265       3410          1         27         89        125      103.7          0          -          -          -          -
  guideddiving     :          0          -          -          -          -          -          -          -          -          -          -          -          -
  indicatordiving  :          0          -          -          -          -          -          -          -          -          -          -          -          -
  linesearchdiving :          6        274       5301          4        304         52         90       66.8          0          -          -          -          -
  pscostdiving     :          4        178       5156          5         89         59         68       62.0          0          -          -          -          -
  veclendiving     :          4        159       3919          5        298         58         69       63.2          0          -          -          -          -
Neighborhoods      :      Calls  SetupTime  SolveTime SolveNodes       Sols       Best       Exp3  EpsGreedy        UCB TgtFixRate  Opt  Inf Node Stal  Sol  Usr Othr Actv
  rens             :          3       0.33       0.18         67          0          0    0.00000   -1.00000    0.48976      0.437    0    3    0    0    0    0    0    1
  rins             :          5       0.69       0.31        398          1          1    0.00000   -1.00000    0.50288      0.791    0    2    0    3    0    0    0    1
  mutation         :          2       0.11       0.10         69          0          0    0.00000   -1.00000    0.47194      0.850    0    1    0    1    0    0    0    1
  localbranching   :          2       0.18       0.08         98          0          0    0.00000   -1.00000    0.46459      0.850    0    1    0    1    0    0    0    1
  crossover        :          6       0.81       0.55        168          3          3    0.00000   -1.00000    0.48504      0.506    0    3    0    2    1    0    0    1
  proximity        :          2       0.07       2.59       2525          2          1    0.00000   -1.00000    0.50081      0.850    1    0    0    1    0    0    0    1
  zeroobjective    :          2       0.19       0.07         97          0          0    0.00000   -1.00000    0.45312      0.850    0    1    0    1    0    0    0    1
  dins             :          6       0.63       0.20        283          3          3    0.00000   -1.00000    0.52669      0.831    0    2    0    3    1    0    0    1
  trustregion      :          0       0.00       0.00          0          0          0    0.00000   -1.00000    1.00000      0.900    0    0    0    0    0    0    0    0
Expressions        :   #IntEval  IntEvalTi   #RevProp  RevPropTi    DomReds    Cutoffs  #Estimate  EstimTime  Branching  #Simplify SimplifyTi Simplified
  pow              :          0       0.00          0       0.00          0          0          0       0.00          0          0       0.00          0
  prod             :       9900       0.00          0       0.00          0          0          0       0.00          0       6590       0.00          0
  sum              :          8       0.00          2       0.00          0          0          0       0.00          0          3       0.01          2
  var              :       6080       0.00          0       0.00          0          0          0       0.00          0      15139       0.01          0
  varidx           :          0       0.00          0       0.00          0          0          0       0.00          0          0       0.00          0
LP                 :       Time      Calls Iterations  Iter/call   Iter/sec  Time-0-It Calls-0-It    ItLimit
  primal LP        :     136.39      18857          0       0.00       0.00     136.34      18857
  dual LP          :    1799.43     233195    9645710      46.36    5360.43      10.60      25124
  lex dual LP      :       0.00          0          0       0.00          -
  barrier LP       :       0.00          0          0       0.00          -       0.00          0
  resolve instable :       0.00          0          0       0.00          -
  diving/probing LP:     452.64      17911    4599653     256.81   10161.84
  strong branching :      24.58       1926     192822     100.12    7844.67          -          -        892
    (at root node) :          -         19       3381     177.95          -
  conflict analysis:      12.46       7933      78401       9.88    6292.22
NLP relaxation     :
  solve time       :       4.05 (10 calls)
  convexity        :  nonconvex (49 linear rows, 0 convex ineq., 0 nonconvex ineq., 1640 nonlinear eq. or two-sided ineq.)
NLP Solvers        :  #Problems  ProblemTi    #Solves  SolveTime      #Iter  Time/Iter      #Okay #TimeLimit #IterLimit #LObjLimit #Interrupt  #NumError #EvalError  #OutOfMem #LicenseEr #OtherTerm   #GlobOpt    #LocOpt  #Feasible #LocInfeas #GlobInfea #Unbounded   #Unknown
  ipopt            :         12       9.49         44     298.44       1664       0.18         44          0          0          0          0          0          0          0          0          0          0         22          0         12          0          0         10
B&B Tree           :
  number of runs   :          1
  nodes            :     191008 (117024 internal, 73984 leaves)
  feasible leaves  :          6
  infeas. leaves   :          6
  objective leaves :      73971
  nodes (total)    :     191008 (117024 internal, 73984 leaves)
  nodes left       :      42730
  max depth        :         63
  max depth (total):         63
  backtracks       :      47219 (24.7%)
  early backtracks :          0 (0.0%)
  nodes exc. ref.  :          0 (0.0%)
  delayed cutoffs  :          8
  repropagations   :         92 (576 domain reductions, 2 cutoffs)
  avg switch length:       6.41
  switching time   :     188.99
Estim. Tree Size   :     382638
Estimation Tree    : 234049 nodes (191319 visited, 117024 internal, 74295 leaves, 42730 open), weight: 0.0000 completed 0.1303
Estimations        :      estim      value      trend resolution     smooth
  wbe              : 212285821437062          -          -          -          -
  tree-profile     :         -1          -          -          -          -
  gap              :    9753201    0.69085    0.00001        128    9627906
  tree-weight      :     382638    0.00000    0.00000        128     382196
  leaf-frequency   :    2115695    0.38833    0.00001        128    2334620
  ssg              :    6188212    0.79427   -0.00003        128    6111455
  open-nodes       :     382638 42730.00000   32.53127        128     382196
Root Node          :
  First LP value   : -5.47070707070708e+00
  First LP Iters   :       1636 (10225.00 Iter/sec)
  First LP Time    :       0.16
  Final Dual Bound : -5.27387837098818e+00
  Final Root Iters :       2361
  Root LP Estimate : -2.02318046515500e+00
Solution           :
  Solutions found  :         30 (28 improvements)
  First Solution   : +1.00000000000000e+05   (in run 1, after 0 nodes, 0.04 seconds, depth 0, found by <trivial>)
  Gap First Sol.   :   infinite
  Gap Last Sol.    :      46.72 %
  Primal Bound     : -3.15434343434343e+00   (in run 1, after 94670 nodes, 1317.68 seconds, depth 40, found by <alns>)
  Dual Bound       : -4.56585606454466e+00
  Gap              :      44.75 %
Integrals          :      Total       Avg%
  primal-dual      :  119128.91      33.09
  primal-ref       :          -          - (not evaluated)
  dual-ref         :          -          - (not evaluated)
